NAME: a280
DIMENSION: 17
EDGE_WEIGHT_TYPE: EUC_2D
NODE_COORD_SECTION
1 288 149
2 288 129
3 270 133
4 256 141
5 256 157
6 246 157
7 236 169
8 228 169
9 228 161
10 220 169
11 212 169
12 204 169
13 196 169
14 188 169
15 196 161
16 188 145
17 172 145
ACCEPTED_PROBABILITIES
0.0
0.16
0.2
0.27
0.27
0.35
0.46
0.52
0.5
0.58
0.65
0.7
0.77
0.84
0.76
0.82
0.95
OUTSOURCING_COSTS
0.0
1.25
1.5
2.06
2.06
2.69
3.5
3.94
3.81
4.44
4.94
5.38
5.88
6.38
5.81
6.25
7.25
